3
Time limit set to 60 seconds
Running CP solver
/home/omastto1/General-Optimization-Solver/src/solvers/mmrcpsp.py:42(stream:108:6): Warning: Cumulative expression 'pulse': height is zero, expression is zero everywhere.
                                                                                               VarCumulAtom_149 = pulse(task_0_mode_0, 0)
/home/omastto1/General-Optimization-Solver/src/solvers/mmrcpsp.py:42(stream:108:1254): Warning: Cumulative expression 'pulse': height is zero, expression is zero everywhere.
                                                                                                  VarCumulAtom_198 = pulse(task_17_mode_0, 0)
/home/omastto1/General-Optimization-Solver/src/solvers/mmrcpsp.py:42(stream:109:6): Warning: Cumulative expression 'pulse': height is zero, expression is zero everywhere.
                                                                                               VarCumulAtom_202 = pulse(task_0_mode_0, 0)
/home/omastto1/General-Optimization-Solver/src/solvers/mmrcpsp.py:42(stream:109:1254): Warning: Cumulative expression 'pulse': height is zero, expression is zero everywhere.
                                                                                                  VarCumulAtom_251 = pulse(task_17_mode_0, 0)
 ! --------------------------------------------------- CP Optimizer 20.1.0.0 --
 ! Minimization problem - 69 variables, 51 constraints
 ! TimeLimit            = 60
 ! Workers              = 14
 ! LogVerbosity         = Terse
 ! Initial process time : 0.00s (0.00s extraction + 0.00s propagation)
 !  . Log search space  : 159.5 (before), 159.5 (after)
 !  . Memory usage      : 754.6 kB (before), 754.6 kB (after)
 ! Using parallel search with 14 workers.
 ! ----------------------------------------------------------------------------
 !          Best Branches  Non-fixed    W       Branch decision
                        0         69                 -
 + New bound is 31
 ! Using iterative diving.
 ! Using temporal relaxation.
 *            43       43  0.39s        1      (gap is 27.91%)
 *            41      104  0.39s        1      (gap is 24.39%)
 *            40      144  0.39s        1      (gap is 22.50%)
 *            39      196  0.39s        1      (gap is 20.51%)
 *            38      254  0.39s        1      (gap is 18.42%)
 *            34      305  0.39s        1      (gap is 8.82%)
 *            33      324  0.39s        1      (gap is 6.06%)
 *            32      335  0.39s        1      (gap is 3.12%)
 *            31      390  0.39s        1      (gap is 0.00%)
 ! ----------------------------------------------------------------------------
 ! Search completed, 9 solutions found.
 ! Best objective         : 31 (optimal - effective tol. is 0)
 ! Best bound             : 31
 ! ----------------------------------------------------------------------------
 ! Number of branches     : 63682
 ! Number of fails        : 2310
 ! Total memory usage     : 9.7 MB (9.6 MB CP Optimizer + 0.1 MB Concert)
 ! Time spent in solve    : 0.42s (0.42s engine + 0.00s extraction)
 ! Search speed (br. / s) : 155322.0
 ! ----------------------------------------------------------------------------
task_0: (start=0, end=0, size=0, length=0)
Task 0 is scheduled in mode 0 from 0 to 0
task_1: (start=0, end=7, size=7, length=7)
Task 1 is scheduled in mode 2 from 0 to 7
task_2: (start=0, end=9, size=9, length=9)
Task 2 is scheduled in mode 2 from 0 to 9
task_3: (start=0, end=10, size=10, length=10)
Task 3 is scheduled in mode 2 from 0 to 10
task_4: (start=7, end=12, size=5, length=5)
Task 4 is scheduled in mode 2 from 7 to 12
task_5: (start=12, end=17, size=5, length=5)
Task 5 is scheduled in mode 1 from 12 to 17
task_6: (start=13, end=21, size=8, length=8)
Task 6 is scheduled in mode 2 from 13 to 21
task_7: (start=17, end=21, size=4, length=4)
Task 7 is scheduled in mode 1 from 17 to 21
task_8: (start=7, end=14, size=7, length=7)
Task 8 is scheduled in mode 2 from 7 to 14
task_9: (start=12, end=21, size=9, length=9)
Task 9 is scheduled in mode 1 from 12 to 21
task_10: (start=21, end=23, size=2, length=2)
Task 10 is scheduled in mode 0 from 21 to 23
task_11: (start=9, end=13, size=4, length=4)
Task 11 is scheduled in mode 2 from 9 to 13
task_12: (start=23, end=27, size=4, length=4)
Task 12 is scheduled in mode 0 from 23 to 27
task_13: (start=21, end=27, size=6, length=6)
Task 13 is scheduled in mode 1 from 21 to 27
task_14: (start=23, end=29, size=6, length=6)
Task 14 is scheduled in mode 1 from 23 to 29
task_15: (start=23, end=31, size=8, length=8)
Task 15 is scheduled in mode 2 from 23 to 31
task_16: (start=27, end=31, size=4, length=4)
Task 16 is scheduled in mode 0 from 27 to 31
task_17: (start=31, end=31, size=0, length=0)
Task 17 is scheduled in mode 0 from 31 to 31
Optimal solution found
Objective value: 31
Solution is optimal.
